n = 9;
k = 4;
maxsize = 9;
nML = 2;
nCL = 2;
deg = [1, 3, 2, 1, 1, 3, 1, 4, 2];
ML = array2d(1..2, 1..2, [8, 5, 4, 7]);
CL = array2d(1..2, 1..2, [9, 1, 2, 3]);
A = array2d(1..9, 1..9, [ 0, 1, 0, 0, 0, 0, 0, 0, 0, 1, 0, 0, 0, 0, 1, 0, 0, 1, 0, 0, 0, 0, 0, 0, 1, 1, 0, 0, 0, 0, 0, 0, 0, 0, 1, 0, 0, 0, 0, 0, 0, 1, 0, 0, 0, 0, 1, 0, 0, 1, 0, 0, 1, 0, 0, 0, 1, 0, 0, 0, 0, 0, 0, 0, 0, 1, 1, 0, 1, 0, 0, 1, 0, 1, 0, 0, 0, 0, 0, 1, 0 ]);
W = array2d(1..9, 1..9, [ 4, 5, -6, 7, -5, -2, -5, -8, 9, 0, 4, -8, -5, 7, -6, 9, -7, 0, 10, -3, 3, -8, -8, -9, -4, -6, -2, -10, -5, 3, 3, -7, 10, -5, 1, 4, -7, -7, 4, -7, -7, 10, 0, -3, -2, -9, -3, 2, -3, 6, 10, -9, 6, -10, 7, 0, -6, 5, -1, 2, -9, -1, -9, -10, 2, -6, -10, 3, 2, -8, 8, 5, -7, -10, 0, 0, 9, 5, -1, 10, 9 ]);